(declare-const X String)
; ^[0-9]{10}$|^\(0[1-9]{1}\)[0-9]{8}$|^[0-9]{8}$|^[0-9]{4}[ ][0-9]{3}[ ][0-9]{3}$|^\(0[1-9]{1}\)[ ][0-9]{4}[ ][0-9]{4}$|^[0-9]{4}[ ][0-9]{4}$
(assert (str.in.re X (re.union ((_ re.loop 10 10) (re.range "0" "9")) (re.++ (str.to.re "(0") ((_ re.loop 1 1) (re.range "1" "9")) (str.to.re ")") ((_ re.loop 8 8) (re.range "0" "9"))) ((_ re.loop 8 8) (re.range "0" "9")) (re.++ ((_ re.loop 4 4) (re.range "0" "9")) (str.to.re " ") ((_ re.loop 3 3) (re.range "0" "9")) (str.to.re " ") ((_ re.loop 3 3) (re.range "0" "9"))) (re.++ (str.to.re "(0") ((_ re.loop 1 1) (re.range "1" "9")) (str.to.re ") ") ((_ re.loop 4 4) (re.range "0" "9")) (str.to.re " ") ((_ re.loop 4 4) (re.range "0" "9"))) (re.++ ((_ re.loop 4 4) (re.range "0" "9")) (str.to.re " ") ((_ re.loop 4 4) (re.range "0" "9")) (str.to.re "\x0a")))))
; search\x2econduit\x2ecom\sPARSER.*
(assert (str.in.re X (re.++ (str.to.re "search.conduit.com") (re.union (str.to.re " ") (str.to.re "\x09") (str.to.re "\x0a") (str.to.re "\x0c") (str.to.re "\x0d")) (str.to.re "PARSER") (re.* re.allchar) (str.to.re "\x0a"))))
; (a|A)
(assert (not (str.in.re X (re.++ (re.union (str.to.re "a") (str.to.re "A")) (str.to.re "\x0a")))))
; ^http://([a-zA-Z0-9_\-]+)([\.][a-zA-Z0-9_\-]+)+([/][a-zA-Z0-9\~\(\)_\-]*)+([\.][a-zA-Z0-9\(\)_\-]+)*$
(assert (str.in.re X (re.++ (str.to.re "http://") (re.+ (re.union (re.range "a" "z") (re.range "A" "Z") (re.range "0" "9") (str.to.re "_") (str.to.re "-"))) (re.+ (re.++ (str.to.re ".") (re.+ (re.union (re.range "a" "z") (re.range "A" "Z") (re.range "0" "9") (str.to.re "_") (str.to.re "-"))))) (re.+ (re.++ (str.to.re "/") (re.* (re.union (re.range "a" "z") (re.range "A" "Z") (re.range "0" "9") (str.to.re "~") (str.to.re "(") (str.to.re ")") (str.to.re "_") (str.to.re "-"))))) (re.* (re.++ (str.to.re ".") (re.+ (re.union (re.range "a" "z") (re.range "A" "Z") (re.range "0" "9") (str.to.re "(") (str.to.re ")") (str.to.re "_") (str.to.re "-"))))) (str.to.re "\x0a"))))
(check-sat)
